PARAMETER_FILE = even/even_uncomplete_graph_new/nei/par/random72.par
PROBLEM_FILE = even/even_uncomplete_graph_new/nei/mat/random72.tsp
Successes/Runs = 0/10
Cost.min = 665, Cost.avg = 665.00, Cost.max = 665
Gap.min = 0.0000%, Gap.avg = 0.0000%, Gap.max = 0.0000%
Trials.min = 1000, Trials.avg = 1000.0, Trials.max = 1000
Time.min = 0.22 sec., Time.avg = 0.25 sec., Time.max = 0.29 sec.
Time.total = 2.58 sec.
请按任意键继续. . . 
